$ nonogram instance, generated by: nonogen 10 5 0.42 0.6 0.2 3717891585
$ ..#.#
$ .###.
$ ..#.#
$ ..##.
$ .....
$ ###.#
$ .#...
$ .####
$ ###..
$ .....
letting m be 10
letting n be 5
letting rowRules be [
sequence(1,1),
sequence(3),
sequence(1,1),
sequence(2),
sequence(),
sequence(3,1),
sequence(1),
sequence(4),
sequence(3),
sequence()]
letting colRules be [
sequence(1,1),
sequence(1,4),
sequence(4,1,2),
sequence(1,1,1),
sequence(1,1,1,1)]
letting r be 4
